NAME : BIER127B.133378.tour
COMMENT : Cost = 0_133378
COMMENT : Found by LKH [Keld Helsgaun] Sun Sep 17 16:52:42 2017
TYPE : TOUR
DIMENSION : 127
TOUR_SECTION
1
15
106
6
108
20
4
19
23
24
9
11
114
105
16
2
51
57
121
50
115
13
120
3
116
60
59
67
73
74
77
79
80
26
38
39
42
34
43
30
27
31
12
14
41
36
37
35
40
44
103
45
54
56
5
52
124
66
55
47
49
53
48
118
46
94
112
111
107
127
93
95
123
98
97
28
122
33
25
29
32
78
117
81
75
69
70
68
71
110
104
85
86
87
88
109
96
119
63
102
101
83
82
126
84
76
18
21
17
22
72
8
90
62
61
58
64
113
65
99
92
89
125
91
100
10
7
-1
EOF
